maximize
v : f_0_12 + f_0_79 + f_0_50 + f_0_7 + f_0_57 + f_0_97 + f_0_61 + f_0_81 + f_0_41 + f_0_99 + f_0_51 + f_0_67 + f_0_98 + f_0_95

subject to
c1: f_23_59 <= 4
c2: f_41_67 <= 8
c3: f_43_17 <= 10
c4: f_67_9 <= 1
c5: f_91_80 <= 6
c6: f_12_50 <= 8
c7: f_97_22 <= 1
c8: f_2_85 <= 9
c9: f_80_11 <= 2
c10: f_38_43 <= 3
c11: f_7_65 <= 10
c12: f_67_87 <= 7
c13: f_46_71 <= 5
c14: f_79_51 <= 2
c15: f_27_30 <= 6
c16: f_47_84 <= 4
c17: f_65_77 <= 8
c18: f_97_85 <= 8
c19: f_50_1 <= 7
c20: f_38_4 <= 6
c21: f_53_84 <= 7
c22: f_96_23 <= 10
c23: f_20_49 <= 10
c24: f_24_27 <= 8
c25: f_26_49 <= 8
c26: f_41_36 <= 7
c27: f_83_62 <= 6
c28: f_26_87 <= 1
c29: f_77_19 <= 8
c30: f_99_57 <= 7
c31: f_81_57 <= 7
c32: f_73_68 <= 9
c33: f_63_92 <= 7
c34: f_33_12 <= 1
c35: f_55_79 <= 1
c36: f_60_34 <= 4
c37: f_79_20 <= 8
c38: f_87_20 <= 6
c39: f_24_58 <= 5
c40: f_88_70 <= 1
c41: f_22_66 <= 7
c42: f_2_45 <= 2
c43: f_58_8 <= 5
c44: f_12_7 <= 7
c45: f_98_42 <= 5
c46: f_91_33 <= 5
c47: f_21_77 <= 4
c48: f_69_71 <= 1
c49: f_94_54 <= 6
c50: f_22_90 <= 9
c51: f_76_8 <= 2
c52: f_8_21 <= 10
c53: f_15_90 <= 5
c54: f_3_33 <= 8
c55: f_82_69 <= 1
c56: f_40_0 <= 8
c57: f_42_46 <= 5
c58: f_6_7 <= 2
c59: f_25_76 <= 10
c60: f_10_29 <= 1
c61: f_96_33 <= 5
c62: f_97_61 <= 5
c63: f_32_68 <= 9
c64: f_44_85 <= 2
c65: f_52_6 <= 8
c66: f_64_22 <= 6
c67: f_13_54 <= 4
c68: f_81_79 <= 6
c69: f_40_87 <= 1
c70: f_72_29 <= 3
c71: f_84_44 <= 7
c72: f_56_46 <= 10
c73: f_59_76 <= 4
c74: f_90_15 <= 10
c75: f_48_56 <= 2
c76: f_93_37 <= 4
c77: f_3_31 <= 10
c78: f_50_92 <= 6
c79: f_16_86 <= 10
c80: f_75_16 <= 1
c81: f_36_15 <= 2
c82: f_67_94 <= 8
c83: f_26_72 <= 2
c84: f_81_11 <= 5
c85: f_39_23 <= 6
c86: f_29_55 <= 2
c87: f_15_86 <= 3
c88: f_4_99 <= 9
c89: f_35_41 <= 3
c90: f_99_49 <= 3
c91: f_49_21 <= 2
c92: f_72_71 <= 2
c93: f_64_10 <= 8
c94: f_50_77 <= 3
c95: f_16_61 <= 10
c96: f_41_22 <= 9
c97: f_62_49 <= 1
c98: f_70_90 <= 3
c99: f_70_81 <= 6
c100: f_76_40 <= 7
c101: f_63_54 <= 1
c102: f_52_18 <= 2
c103: f_82_64 <= 8
c104: f_80_25 <= 6
c105: f_49_14 <= 3
c106: f_36_43 <= 4
c107: f_8_4 <= 6
c108: f_8_78 <= 1
c109: f_19_60 <= 3
c110: f_51_25 <= 10
c111: f_10_77 <= 2
c112: f_94_4 <= 3
c113: f_65_93 <= 8
c114: f_46_51 <= 2
c115: f_2_7 <= 9
c116: f_79_80 <= 5
c117: f_76_16 <= 8
c118: f_56_70 <= 7
c119: f_33_97 <= 6
c120: f_57_17 <= 4
c121: f_4_37 <= 6
c122: f_69_73 <= 2
c123: f_83_23 <= 3
c124: f_45_52 <= 1
c125: f_25_96 <= 3
c126: f_36_64 <= 2
c127: f_50_80 <= 1
c128: f_0_12 <= 4
c129: f_40_35 <= 2
c130: f_97_90 <= 2
c131: f_1_30 <= 1
c132: f_9_71 <= 8
c133: f_93_28 <= 9
c134: f_38_66 <= 2
c135: f_64_35 <= 3
c136: f_57_49 <= 9
c137: f_81_91 <= 4
c138: f_13_59 <= 10
c139: f_20_30 <= 7
c140: f_17_81 <= 4
c141: f_3_8 <= 3
c142: f_25_74 <= 2
c143: f_79_6 <= 1
c144: f_72_6 <= 9
c145: f_73_35 <= 9
c146: f_61_2 <= 1
c147: f_69_26 <= 1
c148: f_1_16 <= 3
c149: f_20_65 <= 7
c150: f_15_11 <= 6
c151: f_36_84 <= 2
c152: f_39_16 <= 7
c153: f_62_0 <= 10
c154: f_69_62 <= 5
c155: f_70_89 <= 1
c156: f_38_95 <= 7
c157: f_49_82 <= 9
c158: f_28_87 <= 2
c159: f_60_23 <= 3
c160: f_32_81 <= 7
c161: f_71_29 <= 7
c162: f_99_32 <= 4
c163: f_97_35 <= 6
c164: f_37_1 <= 1
c165: f_88_91 <= 3
c166: f_79_71 <= 8
c167: f_5_13 <= 4
c168: f_36_91 <= 6
c169: f_95_93 <= 9
c170: f_67_83 <= 2
c171: f_28_78 <= 6
c172: f_55_71 <= 5
c173: f_38_44 <= 8
c174: f_83_66 <= 3
c175: f_94_2 <= 6
c176: f_93_92 <= 6
c177: f_48_90 <= 9
c178: f_39_10 <= 6
c179: f_60_47 <= 1
c180: f_78_80 <= 1
c181: f_32_48 <= 5
c182: f_56_32 <= 7
c183: f_48_46 <= 4
c184: f_81_94 <= 8
c185: f_35_78 <= 2
c186: f_72_14 <= 7
c187: f_74_3 <= 7
c188: f_2_71 <= 9
c189: f_49_44 <= 8
c190: f_33_4 <= 10
c191: f_42_5 <= 7
c192: f_72_40 <= 7
c193: f_98_67 <= 5
c194: f_58_26 <= 6
c195: f_45_83 <= 10
c196: f_62_27 <= 2
c197: f_80_14 <= 8
c198: f_43_37 <= 5
c199: f_52_89 <= 5
c200: f_77_55 <= 9
c201: f_76_86 <= 9
c202: f_10_82 <= 6
c203: f_48_32 <= 8
c204: f_28_86 <= 9
c205: f_17_8 <= 1
c206: f_75_99 <= 10
c207: f_26_61 <= 10
c208: f_25_68 <= 4
c209: f_48_65 <= 4
c210: f_17_66 <= 9
c211: f_49_31 <= 3
c212: f_67_35 <= 3
c213: f_35_61 <= 3
c214: f_3_43 <= 6
c215: f_93_30 <= 9
c216: f_40_52 <= 1
c217: f_48_40 <= 7
c218: f_86_64 <= 4
c219: f_37_72 <= 7
c220: f_41_69 <= 9
c221: f_87_17 <= 10
c222: f_33_77 <= 6
c223: f_93_0 <= 1
c224: f_15_63 <= 8
c225: f_4_61 <= 7
c226: f_4_83 <= 1
c227: f_1_55 <= 4
c228: f_71_48 <= 3
c229: f_98_71 <= 4
c230: f_13_50 <= 2
c231: f_11_2 <= 1
c232: f_35_90 <= 8
c233: f_53_97 <= 9
c234: f_82_59 <= 3
c235: f_96_31 <= 6
c236: f_46_75 <= 4
c237: f_64_12 <= 6
c238: f_69_99 <= 5
c239: f_63_34 <= 5
c240: f_56_58 <= 6
c241: f_58_56 <= 4
c242: f_16_22 <= 9
c243: f_47_12 <= 6
c244: f_16_7 <= 5
c245: f_7_89 <= 9
c246: f_12_65 <= 4
c247: f_75_43 <= 3
c248: f_7_66 <= 3
c249: f_58_31 <= 5
c250: f_8_37 <= 1
c251: f_92_41 <= 1
c252: f_15_50 <= 8
c253: f_42_66 <= 7
c254: f_68_24 <= 9
c255: f_37_91 <= 9
c256: f_24_45 <= 9
c257: f_85_8 <= 8
c258: f_83_15 <= 9
c259: f_63_37 <= 4
c260: f_0_79 <= 7
c261: f_37_97 <= 1
c262: f_73_32 <= 6
c263: f_45_51 <= 7
c264: f_56_3 <= 5
c265: f_72_98 <= 8
c266: f_38_42 <= 8
c267: f_31_17 <= 1
c268: f_63_11 <= 9
c269: f_14_5 <= 10
c270: f_9_16 <= 9
c271: f_93_63 <= 9
c272: f_43_44 <= 3
c273: f_5_35 <= 10
c274: f_71_63 <= 8
c275: f_71_23 <= 6
c276: f_74_77 <= 5
c277: f_57_81 <= 8
c278: f_83_20 <= 4
c279: f_93_53 <= 6
c280: f_37_17 <= 5
c281: f_18_45 <= 7
c282: f_27_21 <= 8
c283: f_90_70 <= 7
c284: f_34_85 <= 10
c285: f_22_9 <= 10
c286: f_98_53 <= 8
c287: f_29_33 <= 1
c288: f_55_50 <= 5
c289: f_12_23 <= 8
c290: f_69_13 <= 10
c291: f_61_29 <= 7
c292: f_72_11 <= 4
c293: f_41_47 <= 5
c294: f_1_52 <= 2
c295: f_18_14 <= 10
c296: f_51_50 <= 6
c297: f_38_6 <= 8
c298: f_90_55 <= 5
c299: f_61_34 <= 6
c300: f_35_25 <= 9
c301: f_13_37 <= 5
c302: f_39_11 <= 8
c303: f_6_37 <= 7
c304: f_49_41 <= 9
c305: f_58_28 <= 4
c306: f_40_22 <= 2
c307: f_17_31 <= 7
c308: f_28_27 <= 4
c309: f_50_57 <= 8
c310: f_26_55 <= 10
c311: f_89_61 <= 10
c312: f_73_50 <= 7
c313: f_41_7 <= 6
c314: f_76_90 <= 8
c315: f_21_74 <= 5
c316: f_95_3 <= 3
c317: f_92_45 <= 1
c318: f_57_43 <= 9
c319: f_2_51 <= 1
c320: f_50_25 <= 3
c321: f_80_83 <= 6
c322: f_77_74 <= 4
c323: f_59_75 <= 1
c324: f_1_93 <= 7
c325: f_56_85 <= 7
c326: f_70_58 <= 6
c327: f_46_56 <= 4
c328: f_55_47 <= 6
c329: f_67_14 <= 9
c330: f_49_92 <= 8
c331: f_9_78 <= 8
c332: f_64_23 <= 5
c333: f_37_11 <= 3
c334: f_79_39 <= 5
c335: f_22_68 <= 5
c336: f_88_39 <= 7
c337: f_44_33 <= 6
c338: f_3_76 <= 10
c339: f_22_44 <= 7
c340: f_17_34 <= 6
c341: f_64_20 <= 2
c342: f_97_4 <= 7
c343: f_48_20 <= 1
c344: f_96_53 <= 5
c345: f_29_69 <= 7
c346: f_50_61 <= 7
c347: f_48_24 <= 9
c348: f_59_10 <= 3
c349: f_97_81 <= 1
c350: f_40_38 <= 7
c351: f_22_69 <= 8
c352: f_42_7 <= 10
c353: f_8_15 <= 4
c354: f_6_99 <= 8
c355: f_14_50 <= 2
c356: f_6_33 <= 5
c357: f_14_36 <= 5
c358: f_23_85 <= 10
c359: f_66_30 <= 7
c360: f_17_99 <= 9
c361: f_0_50 <= 8
c362: f_28_89 <= 2
c363: f_4_1 <= 2
c364: f_35_85 <= 4
c365: f_0_7 <= 10
c366: f_53_50 <= 10
c367: f_53_43 <= 2
c368: f_84_93 <= 1
c369: f_76_95 <= 7
c370: f_22_43 <= 6
c371: f_91_85 <= 5
c372: f_2_35 <= 8
c373: f_1_28 <= 9
c374: f_59_8 <= 3
c375: f_19_36 <= 1
c376: f_47_26 <= 6
c377: f_80_24 <= 1
c378: f_62_60 <= 6
c379: f_57_45 <= 4
c380: f_35_26 <= 6
c381: f_14_44 <= 9
c382: f_34_47 <= 6
c383: f_1_98 <= 5
c384: f_54_53 <= 2
c385: f_86_33 <= 8
c386: f_80_89 <= 7
c387: f_95_24 <= 3
c388: f_93_75 <= 8
c389: f_2_34 <= 1
c390: f_67_76 <= 4
c391: f_33_11 <= 1
c392: f_34_35 <= 5
c393: f_17_94 <= 5
c394: f_37_47 <= 9
c395: f_26_1 <= 4
c396: f_90_23 <= 4
c397: f_24_76 <= 8
c398: f_91_25 <= 8
c399: f_77_66 <= 1
c400: f_31_13 <= 10
c401: f_2_33 <= 6
c402: f_97_53 <= 3
c403: f_49_15 <= 2
c404: f_50_87 <= 6
c405: f_58_12 <= 7
c406: f_8_30 <= 1
c407: f_76_15 <= 9
c408: f_87_14 <= 10
c409: f_42_79 <= 8
c410: f_0_57 <= 7
c411: f_84_39 <= 10
c412: f_92_18 <= 6
c413: f_44_31 <= 9
c414: f_41_53 <= 2
c415: f_75_51 <= 4
c416: f_97_64 <= 9
c417: f_48_54 <= 7
c418: f_24_84 <= 6
c419: f_24_64 <= 9
c420: f_13_96 <= 3
c421: f_31_84 <= 4
c422: f_15_1 <= 4
c423: f_8_9 <= 1
c424: f_43_69 <= 4
c425: f_21_76 <= 1
c426: f_9_65 <= 1
c427: f_42_33 <= 8
c428: f_80_58 <= 10
c429: f_12_69 <= 5
c430: f_51_1 <= 3
c431: f_27_16 <= 5
c432: f_75_67 <= 7
c433: f_87_97 <= 2
c434: f_6_97 <= 7
c435: f_31_54 <= 10
c436: f_71_33 <= 9
c437: f_0_97 <= 2
c438: f_34_54 <= 6
c439: f_20_81 <= 3
c440: f_96_36 <= 2
c441: f_22_71 <= 9
c442: f_83_42 <= 9
c443: f_47_95 <= 6
c444: f_18_41 <= 8
c445: f_82_94 <= 5
c446: f_34_24 <= 4
c447: f_95_37 <= 9
c448: f_4_71 <= 1
c449: f_85_71 <= 5
c450: f_20_52 <= 7
c451: f_14_89 <= 1
c452: f_38_12 <= 7
c453: f_58_55 <= 2
c454: f_49_2 <= 1
c455: f_63_48 <= 7
c456: f_25_14 <= 9
c457: f_70_34 <= 9
c458: f_44_48 <= 4
c459: f_72_8 <= 7
c460: f_88_87 <= 5
c461: f_10_45 <= 1
c462: f_82_3 <= 8
c463: f_11_30 <= 2
c464: f_11_84 <= 10
c465: f_15_71 <= 10
c466: f_70_26 <= 7
c467: f_34_26 <= 7
c468: f_40_1 <= 8
c469: f_92_28 <= 7
c470: f_2_67 <= 9
c471: f_63_44 <= 5
c472: f_33_25 <= 9
c473: f_61_76 <= 7
c474: f_37_77 <= 3
c475: f_38_84 <= 6
c476: f_90_49 <= 5
c477: f_34_59 <= 7
c478: f_25_73 <= 2
c479: f_48_36 <= 2
c480: f_64_47 <= 9
c481: f_86_22 <= 5
c482: f_87_96 <= 3
c483: f_42_85 <= 1
c484: f_35_17 <= 7
c485: f_40_28 <= 10
c486: f_12_92 <= 6
c487: f_5_56 <= 7
c488: f_85_15 <= 1
c489: f_94_81 <= 1
c490: f_45_89 <= 9
c491: f_48_94 <= 3
c492: f_34_91 <= 7
c493: f_33_14 <= 3
c494: f_57_78 <= 8
c495: f_97_40 <= 5
c496: f_36_13 <= 3
c497: f_16_29 <= 7
c498: f_83_86 <= 4
c499: f_78_14 <= 9
c500: f_45_20 <= 1
c501: f_0_61 <= 2
c502: f_57_12 <= 7
c503: f_13_22 <= 5
c504: f_39_38 <= 8
c505: f_80_90 <= 3
c506: f_65_21 <= 6
c507: f_11_61 <= 7
c508: f_12_11 <= 10
c509: f_83_2 <= 4
c510: f_40_61 <= 8
c511: f_26_94 <= 7
c512: f_27_48 <= 9
c513: f_60_94 <= 4
c514: f_38_35 <= 6
c515: f_81_23 <= 5
c516: f_81_56 <= 4
c517: f_40_4 <= 10
c518: f_96_15 <= 7
c519: f_51_53 <= 1
c520: f_27_93 <= 6
c521: f_52_87 <= 7
c522: f_42_15 <= 10
c523: f_61_78 <= 3
c524: f_94_66 <= 3
c525: f_18_44 <= 1
c526: f_20_8 <= 9
c527: f_31_9 <= 3
c528: f_35_45 <= 1
c529: f_55_66 <= 9
c530: f_48_85 <= 4
c531: f_30_73 <= 9
c532: f_77_52 <= 4
c533: f_67_60 <= 4
c534: f_84_25 <= 7
c535: f_2_73 <= 1
c536: f_44_72 <= 3
c537: f_20_50 <= 2
c538: f_54_85 <= 2
c539: f_24_40 <= 10
c540: f_44_26 <= 2
c541: f_27_54 <= 3
c542: f_76_65 <= 10
c543: f_35_67 <= 6
c544: f_53_45 <= 3
c545: f_23_34 <= 6
c546: f_6_49 <= 3
c547: f_92_67 <= 3
c548: f_77_23 <= 2
c549: f_22_83 <= 10
c550: f_82_92 <= 8
c551: f_27_62 <= 8
c552: f_63_59 <= 4
c553: f_7_87 <= 8
c554: f_44_90 <= 9
c555: f_54_51 <= 6
c556: f_10_20 <= 7
c557: f_17_53 <= 10
c558: f_82_10 <= 6
c559: f_40_81 <= 8
c560: f_7_29 <= 5
c561: f_40_46 <= 5
c562: f_16_79 <= 7
c563: f_36_32 <= 2
c564: f_96_88 <= 10
c565: f_63_91 <= 10
c566: f_38_78 <= 2
c567: f_17_89 <= 6
c568: f_71_65 <= 4
c569: f_90_48 <= 8
c570: f_79_30 <= 7
c571: f_66_99 <= 9
c572: f_83_25 <= 5
c573: f_54_57 <= 9
c574: f_54_37 <= 6
c575: f_10_25 <= 8
c576: f_10_3 <= 6
c577: f_9_32 <= 10
c578: f_82_86 <= 1
c579: f_95_48 <= 1
c580: f_39_26 <= 7
c581: f_50_96 <= 7
c582: f_16_1 <= 4
c583: f_34_98 <= 8
c584: f_49_66 <= 1
c585: f_49_78 <= 6
c586: f_28_13 <= 9
c587: f_5_82 <= 10
c588: f_39_68 <= 7
c589: f_47_50 <= 8
c590: f_14_91 <= 3
c591: f_7_60 <= 10
c592: f_75_27 <= 1
c593: f_39_22 <= 4
c594: f_20_47 <= 1
c595: f_87_35 <= 3
c596: f_48_14 <= 1
c597: f_21_72 <= 1
c598: f_28_30 <= 9
c599: f_61_39 <= 7
c600: f_4_48 <= 6
c601: f_28_83 <= 6
c602: f_72_93 <= 4
c603: f_84_54 <= 6
c604: f_88_63 <= 4
c605: f_82_4 <= 2
c606: f_66_12 <= 2
c607: f_97_98 <= 9
c608: f_62_50 <= 9
c609: f_92_93 <= 6
c610: f_32_9 <= 9
c611: f_26_5 <= 8
c612: f_63_80 <= 9
c613: f_14_2 <= 9
c614: f_91_18 <= 2
c615: f_82_99 <= 3
c616: f_62_77 <= 6
c617: f_60_13 <= 1
c618: f_51_42 <= 7
c619: f_24_69 <= 4
c620: f_86_30 <= 1
c621: f_69_8 <= 6
c622: f_55_64 <= 2
c623: f_26_40 <= 7
c624: f_34_5 <= 2
c625: f_48_16 <= 10
c626: f_78_75 <= 4
c627: f_79_14 <= 8
c628: f_87_69 <= 1
c629: f_14_19 <= 7
c630: f_45_14 <= 6
c631: f_84_89 <= 1
c632: f_91_75 <= 9
c633: f_77_80 <= 9
c634: f_48_8 <= 6
c635: f_9_36 <= 4
c636: f_8_69 <= 2
c637: f_37_95 <= 1
c638: f_76_92 <= 9
c639: f_85_46 <= 3
c640: f_6_14 <= 10
c641: f_57_89 <= 4
c642: f_76_7 <= 8
c643: f_83_46 <= 7
c644: f_18_57 <= 7
c645: f_44_0 <= 5
c646: f_73_71 <= 7
c647: f_24_78 <= 2
c648: f_7_84 <= 7
c649: f_1_74 <= 5
c650: f_69_12 <= 7
c651: f_29_32 <= 7
c652: f_58_89 <= 9
c653: f_46_62 <= 5
c654: f_68_71 <= 9
c655: f_63_38 <= 8
c656: f_21_13 <= 9
c657: f_22_84 <= 10
c658: f_88_13 <= 8
c659: f_2_80 <= 6
c660: f_1_26 <= 9
c661: f_13_51 <= 8
c662: f_21_83 <= 10
c663: f_71_21 <= 1
c664: f_63_47 <= 5
c665: f_54_78 <= 6
c666: f_66_25 <= 2
c667: f_75_73 <= 2
c668: f_62_16 <= 10
c669: f_20_16 <= 1
c670: f_18_46 <= 3
c671: f_50_28 <= 5
c672: f_27_5 <= 4
c673: f_16_71 <= 3
c674: f_25_30 <= 1
c675: f_45_92 <= 1
c676: f_5_24 <= 5
c677: f_73_55 <= 2
c678: f_75_21 <= 7
c679: f_5_90 <= 1
c680: f_33_26 <= 6
c681: f_76_13 <= 9
c682: f_87_48 <= 9
c683: f_79_44 <= 10
c684: f_70_69 <= 8
c685: f_32_5 <= 8
c686: f_73_15 <= 2
c687: f_44_81 <= 6
c688: f_1_66 <= 10
c689: f_4_74 <= 8
c690: f_58_41 <= 9
c691: f_25_33 <= 10
c692: f_74_22 <= 3
c693: f_80_36 <= 4
c694: f_38_15 <= 10
c695: f_93_40 <= 6
c696: f_80_44 <= 3
c697: f_83_56 <= 6
c698: f_44_94 <= 2
c699: f_95_22 <= 7
c700: f_52_61 <= 9
c701: f_80_54 <= 2
c702: f_10_60 <= 5
c703: f_65_11 <= 8
c704: f_46_4 <= 4
c705: f_76_0 <= 4
c706: f_72_17 <= 6
c707: f_90_13 <= 9
c708: f_64_33 <= 5
c709: f_1_4 <= 3
c710: f_21_85 <= 6
c711: f_85_80 <= 7
c712: f_96_62 <= 3
c713: f_48_10 <= 1
c714: f_22_26 <= 4
c715: f_98_7 <= 9
c716: f_49_29 <= 7
c717: f_39_86 <= 4
c718: f_89_31 <= 9
c719: f_16_72 <= 5
c720: f_13_99 <= 8
c721: f_55_73 <= 1
c722: f_81_75 <= 6
c723: f_48_92 <= 10
c724: f_78_2 <= 10
c725: f_61_93 <= 4
c726: f_0_81 <= 1
c727: f_13_18 <= 9
c728: f_22_33 <= 1
c729: f_78_47 <= 9
c730: f_17_20 <= 5
c731: f_0_41 <= 10
c732: f_91_15 <= 9
c733: f_65_34 <= 1
c734: f_56_19 <= 3
c735: f_46_92 <= 9
c736: f_91_10 <= 6
c737: f_55_94 <= 8
c738: f_0_99 <= 10
c739: f_44_35 <= 5
c740: f_78_1 <= 2
c741: f_15_65 <= 4
c742: f_96_12 <= 9
c743: f_84_65 <= 6
c744: f_58_30 <= 3
c745: f_57_73 <= 1
c746: f_78_39 <= 3
c747: f_86_88 <= 8
c748: f_10_33 <= 10
c749: f_85_67 <= 6
c750: f_7_67 <= 8
c751: f_8_27 <= 10
c752: f_99_25 <= 5
c753: f_31_47 <= 8
c754: f_25_17 <= 2
c755: f_10_39 <= 3
c756: f_33_21 <= 5
c757: f_78_68 <= 1
c758: f_9_14 <= 5
c759: f_65_68 <= 6
c760: f_57_8 <= 4
c761: f_27_3 <= 4
c762: f_43_52 <= 2
c763: f_28_57 <= 6
c764: f_24_88 <= 3
c765: f_98_66 <= 7
c766: f_80_5 <= 1
c767: f_3_41 <= 9
c768: f_77_16 <= 4
c769: f_67_17 <= 6
c770: f_17_23 <= 6
c771: f_43_92 <= 8
c772: f_25_20 <= 3
c773: f_11_34 <= 8
c774: f_74_73 <= 4
c775: f_94_78 <= 3
c776: f_29_39 <= 6
c777: f_32_82 <= 9
c778: f_49_72 <= 3
c779: f_41_18 <= 8
c780: f_96_81 <= 9
c781: f_16_43 <= 9
c782: f_3_1 <= 8
c783: f_65_60 <= 7
c784: f_38_76 <= 4
c785: f_9_82 <= 2
c786: f_59_25 <= 8
c787: f_94_88 <= 7
c788: f_99_54 <= 9
c789: f_49_19 <= 8
c790: f_7_31 <= 4
c791: f_37_58 <= 1
c792: f_43_61 <= 9
c793: f_99_50 <= 7
c794: f_7_18 <= 8
c795: f_56_73 <= 4
c796: f_95_35 <= 9
c797: f_64_29 <= 7
c798: f_80_66 <= 4
c799: f_51_52 <= 10
c800: f_30_76 <= 6
c801: f_95_13 <= 5
c802: f_27_92 <= 1
c803: f_78_31 <= 7
c804: f_0_51 <= 3
c805: f_66_50 <= 7
c806: f_0_67 <= 9
c807: f_74_49 <= 2
c808: f_79_92 <= 4
c809: f_87_25 <= 6
c810: f_39_24 <= 8
c811: f_98_18 <= 7
c812: f_19_8 <= 9
c813: f_66_67 <= 9
c814: f_36_40 <= 9
c815: f_7_24 <= 3
c816: f_23_22 <= 6
c817: f_93_87 <= 1
c818: f_81_92 <= 2
c819: f_61_31 <= 6
c820: f_9_21 <= 1
c821: f_99_56 <= 6
c822: f_7_50 <= 8
c823: f_51_29 <= 10
c824: f_80_17 <= 4
c825: f_64_91 <= 6
c826: f_7_44 <= 3
c827: f_40_93 <= 4
c828: f_21_17 <= 9
c829: f_70_76 <= 9
c830: f_44_83 <= 4
c831: f_12_80 <= 3
c832: f_0_98 <= 6
c833: f_70_35 <= 2
c834: f_43_5 <= 2
c835: f_34_57 <= 6
c836: f_70_86 <= 10
c837: f_3_21 <= 4
c838: f_74_39 <= 10
c839: f_13_1 <= 2
c840: f_58_17 <= 6
c841: f_98_78 <= 7
c842: f_90_10 <= 3
c843: f_1_94 <= 1
c844: f_43_35 <= 7
c845: f_5_55 <= 9
c846: f_10_80 <= 9
c847: f_50_90 <= 10
c848: f_49_60 <= 9
c849: f_16_33 <= 4
c850: f_23_63 <= 5
c851: f_25_8 <= 4
c852: f_37_96 <= 9
c853: f_37_44 <= 3
c854: f_67_81 <= 2
c855: f_17_55 <= 10
c856: f_71_49 <= 3
c857: f_28_97 <= 5
c858: f_51_92 <= 10
c859: f_8_56 <= 6
c860: f_95_74 <= 7
c861: f_96_77 <= 7
c862: f_90_96 <= 10
c863: f_20_3 <= 6
c864: f_4_82 <= 2
c865: f_63_41 <= 6
c866: f_39_78 <= 1
c867: f_60_19 <= 1
c868: f_14_11 <= 9
c869: f_32_77 <= 7
c870: f_80_64 <= 5
c871: f_59_80 <= 10
c872: f_8_71 <= 8
c873: f_34_32 <= 6
c874: f_75_97 <= 4
c875: f_46_53 <= 7
c876: f_99_93 <= 8
c877: f_54_7 <= 9
c878: f_4_89 <= 6
c879: f_98_34 <= 9
c880: f_78_81 <= 1
c881: f_65_69 <= 6
c882: f_28_8 <= 5
c883: f_52_23 <= 2
c884: f_66_13 <= 2
c885: f_10_96 <= 10
c886: f_82_7 <= 4
c887: f_86_72 <= 4
c888: f_53_51 <= 6
c889: f_96_70 <= 1
c890: f_87_58 <= 5
c891: f_62_74 <= 2
c892: f_4_16 <= 7
c893: f_54_79 <= 10
c894: f_97_41 <= 6
c895: f_6_88 <= 10
c896: f_79_60 <= 8
c897: f_63_70 <= 9
c898: f_86_93 <= 10
c899: f_78_36 <= 2
c900: f_42_20 <= 3
c901: f_60_46 <= 4
c902: f_74_86 <= 6
c903: f_84_56 <= 2
c904: f_88_21 <= 5
c905: f_12_6 <= 4
c906: f_58_74 <= 7
c907: f_80_87 <= 9
c908: f_23_60 <= 4
c909: f_96_82 <= 3
c910: f_27_58 <= 5
c911: f_23_3 <= 6
c912: f_41_14 <= 3
c913: f_46_20 <= 4
c914: f_46_85 <= 4
c915: f_54_65 <= 2
c916: f_28_50 <= 9
c917: f_68_80 <= 5
c918: f_94_51 <= 10
c919: f_51_41 <= 2
c920: f_3_40 <= 7
c921: f_19_87 <= 5
c922: f_92_74 <= 10
c923: f_33_36 <= 2
c924: f_94_77 <= 6
c925: f_12_89 <= 9
c926: f_4_20 <= 6
c927: f_60_61 <= 2
c928: f_53_96 <= 3
c929: f_2_31 <= 2
c930: f_60_25 <= 2
c931: f_15_26 <= 2
c932: f_64_65 <= 7
c933: f_25_41 <= 2
c934: f_43_51 <= 4
c935: f_29_85 <= 5
c936: f_9_4 <= 2
c937: f_29_27 <= 10
c938: f_44_27 <= 6
c939: f_26_99 <= 1
c940: f_91_54 <= 3
c941: f_86_84 <= 4
c942: f_74_60 <= 5
c943: f_84_28 <= 4
c944: f_37_43 <= 3
c945: f_86_67 <= 6
c946: f_0_95 <= 9
c947: f_64_93 <= 1
c948: f_82_23 <= 5
c949: f_27_65 <= 9
c950: f_71_20 <= 7
c951: f_5_54 <= 7
c952: f_50_1 - f_1_30- f_1_16 + f_37_1 - f_1_55- f_1_52- f_1_93 + f_4_1 - f_1_28- f_1_98 + f_26_1  + f_15_1  + f_51_1  + f_40_1  + f_16_1 - f_1_74- f_1_26- f_1_66- f_1_4 + f_78_1  + f_3_1  + f_13_1 - f_1_94 = 0
c953: - f_2_85- f_2_45- f_2_7 + f_61_2  + f_94_2 - f_2_71 + f_11_2 - f_2_51- f_2_35- f_2_34- f_2_33 + f_49_2 - f_2_67 + f_83_2 - f_2_73 + f_14_2 - f_2_80 + f_78_2 - f_2_31 = 0
c954: - f_3_33- f_3_31- f_3_8 + f_74_3 - f_3_43 + f_56_3  + f_95_3 - f_3_76 + f_82_3  + f_10_3  + f_27_3 - f_3_41- f_3_1- f_3_21 + f_20_3  + f_23_3 - f_3_40 = 0
c955: f_38_4 - f_4_99 + f_8_4  + f_94_4 - f_4_37 + f_33_4 - f_4_61- f_4_83 + f_97_4 - f_4_1- f_4_71 + f_40_4 - f_4_48 + f_82_4 - f_4_74 + f_46_4  + f_1_4 - f_4_82- f_4_89- f_4_16- f_4_20 + f_9_4  = 0
c956: - f_5_13 + f_42_5  + f_14_5 - f_5_35- f_5_56- f_5_82 + f_26_5  + f_34_5  + f_27_5 - f_5_24- f_5_90 + f_32_5  + f_80_5  + f_43_5 - f_5_55- f_5_54 = 0
c957: - f_6_7 + f_52_6  + f_79_6  + f_72_6  + f_38_6 - f_6_37- f_6_99- f_6_33- f_6_97- f_6_49- f_6_14- f_6_88 + f_12_6  = 0
c958: - f_7_65 + f_12_7  + f_6_7  + f_2_7  + f_16_7 - f_7_89- f_7_66 + f_41_7  + f_42_7  + f_0_7 - f_7_87- f_7_29- f_7_60 + f_76_7 - f_7_84 + f_98_7 - f_7_67- f_7_31- f_7_18- f_7_24- f_7_50- f_7_44 + f_54_7  + f_82_7  = 0
c959: f_58_8  + f_76_8 - f_8_21- f_8_4- f_8_78 + f_3_8  + f_17_8 - f_8_37 + f_85_8 - f_8_15 + f_59_8 - f_8_30- f_8_9 + f_72_8  + f_20_8  + f_69_8  + f_48_8 - f_8_69- f_8_27 + f_57_8  + f_19_8  + f_25_8 - f_8_56- f_8_71 + f_28_8  = 0
c960: f_67_9 - f_9_71- f_9_16 + f_22_9 - f_9_78 + f_8_9 - f_9_65 + f_31_9 - f_9_32 + f_32_9 - f_9_36- f_9_14- f_9_82- f_9_21- f_9_4 = 0
c961: - f_10_29 + f_64_10 - f_10_77 + f_39_10 - f_10_82 + f_59_10 - f_10_45- f_10_20 + f_82_10 - f_10_25- f_10_3- f_10_60 + f_48_10  + f_91_10 - f_10_33- f_10_39 + f_90_10 - f_10_80- f_10_96 = 0
c962: f_80_11  + f_81_11  + f_15_11 - f_11_2 + f_63_11  + f_72_11  + f_39_11  + f_37_11  + f_33_11 - f_11_30- f_11_84- f_11_61 + f_12_11  + f_65_11 - f_11_34 + f_14_11  = 0
c963: - f_12_50 + f_33_12 - f_12_7 + f_0_12  + f_64_12  + f_47_12 - f_12_65- f_12_23 + f_58_12 - f_12_69 + f_38_12 - f_12_92 + f_57_12 - f_12_11 + f_66_12  + f_69_12  + f_96_12 - f_12_80- f_12_6- f_12_89 = 0
c964: - f_13_54- f_13_59 + f_5_13 - f_13_50 + f_69_13 - f_13_37 + f_31_13 - f_13_96 + f_36_13 - f_13_22 + f_28_13  + f_60_13  + f_21_13  + f_88_13 - f_13_51 + f_76_13  + f_90_13 - f_13_99- f_13_18 + f_95_13 - f_13_1 + f_66_13  = 0
c965: f_49_14  + f_72_14  + f_80_14 - f_14_5 + f_18_14  + f_67_14 - f_14_50- f_14_36- f_14_44 + f_87_14 - f_14_89 + f_25_14  + f_33_14  + f_78_14 - f_14_91 + f_48_14 - f_14_2 + f_79_14 - f_14_19 + f_45_14  + f_6_14  + f_9_14 - f_14_11 + f_41_14  = 0
c966: - f_15_90 + f_90_15  + f_36_15 - f_15_86- f_15_11- f_15_63- f_15_50 + f_83_15  + f_8_15  + f_49_15  + f_76_15 - f_15_1- f_15_71 + f_85_15  + f_96_15  + f_42_15  + f_73_15  + f_38_15  + f_91_15 - f_15_65- f_15_26 = 0
c967: - f_16_86 + f_75_16 - f_16_61 + f_76_16  + f_1_16  + f_39_16 - f_16_22- f_16_7 + f_9_16  + f_27_16 - f_16_29- f_16_79- f_16_1 + f_48_16  + f_62_16  + f_20_16 - f_16_71- f_16_72 + f_77_16 - f_16_43- f_16_33 + f_4_16  = 0
c968: f_43_17  + f_57_17 - f_17_81- f_17_8- f_17_66 + f_87_17  + f_31_17  + f_37_17 - f_17_31- f_17_34- f_17_99- f_17_94 + f_35_17 - f_17_53- f_17_89 + f_72_17 - f_17_20 + f_25_17  + f_67_17 - f_17_23 + f_80_17  + f_21_17  + f_58_17 - f_17_55 = 0
c969: f_52_18 - f_18_45- f_18_14 + f_92_18 - f_18_41- f_18_44 + f_91_18 - f_18_57- f_18_46 + f_13_18  + f_41_18  + f_7_18  + f_98_18  = 0
c970: f_77_19 - f_19_60- f_19_36 + f_14_19  + f_56_19  + f_49_19 - f_19_8 + f_60_19 - f_19_87 = 0
c971: - f_20_49 + f_79_20  + f_87_20 - f_20_30- f_20_65 + f_83_20  + f_64_20  + f_48_20 - f_20_81- f_20_52 + f_45_20 - f_20_8- f_20_50 + f_10_20 - f_20_47- f_20_16 + f_17_20  + f_25_20 - f_20_3 + f_42_20  + f_46_20  + f_4_20  + f_71_20  = 0
c972: - f_21_77 + f_8_21  + f_49_21  + f_27_21 - f_21_74- f_21_76 + f_65_21 - f_21_72- f_21_13- f_21_83 + f_71_21  + f_75_21 - f_21_85 + f_33_21  + f_9_21 - f_21_17 + f_3_21  + f_88_21  = 0
c973: f_97_22 - f_22_66- f_22_90 + f_64_22  + f_41_22  + f_16_22 - f_22_9 + f_40_22 - f_22_68- f_22_44- f_22_69- f_22_43- f_22_71 + f_86_22  + f_13_22 - f_22_83 + f_39_22 - f_22_84 + f_74_22  + f_95_22 - f_22_26- f_22_33 + f_23_22  = 0
c974: - f_23_59 + f_96_23  + f_39_23  + f_83_23  + f_60_23  + f_71_23  + f_12_23  + f_64_23 - f_23_85 + f_90_23  + f_81_23 - f_23_34 + f_77_23  + f_17_23 - f_23_22- f_23_63 + f_52_23 - f_23_60- f_23_3 + f_82_23  = 0
c975: - f_24_27- f_24_58 + f_68_24 - f_24_45 + f_48_24  + f_80_24  + f_95_24 - f_24_76- f_24_84- f_24_64 + f_34_24 - f_24_40- f_24_69- f_24_78 + f_5_24 - f_24_88 + f_39_24  + f_7_24  = 0
c976: - f_25_76 + f_80_25  + f_51_25 - f_25_96- f_25_74- f_25_68 + f_35_25  + f_50_25  + f_91_25 - f_25_14 + f_33_25 - f_25_73 + f_84_25  + f_83_25  + f_10_25  + f_66_25 - f_25_30- f_25_33 + f_99_25 - f_25_17- f_25_20 + f_59_25  + f_87_25 - f_25_8 + f_60_25 - f_25_41 = 0
c977: - f_26_49- f_26_87- f_26_72 + f_69_26  + f_58_26 - f_26_61- f_26_55 + f_47_26  + f_35_26 - f_26_1 + f_70_26  + f_34_26 - f_26_94 + f_44_26  + f_39_26 - f_26_5- f_26_40 + f_1_26  + f_33_26  + f_22_26  + f_15_26 - f_26_99 = 0
c978: - f_27_30 + f_24_27  + f_62_27 - f_27_21 + f_28_27 - f_27_16- f_27_48- f_27_93- f_27_54- f_27_62 + f_75_27 - f_27_5 + f_8_27 - f_27_3- f_27_92- f_27_58 + f_29_27  + f_44_27 - f_27_65 = 0
c979: f_93_28 - f_28_87- f_28_78- f_28_86 + f_58_28 - f_28_27- f_28_89 + f_1_28  + f_92_28  + f_40_28 - f_28_13- f_28_30- f_28_83 + f_50_28 - f_28_57- f_28_97- f_28_8- f_28_50 + f_84_28  = 0
c980: f_10_29  + f_72_29 - f_29_55 + f_71_29 - f_29_33 + f_61_29 - f_29_69 + f_16_29  + f_7_29 - f_29_32 + f_49_29 - f_29_39 + f_64_29  + f_51_29 - f_29_85- f_29_27 = 0
c981: f_27_30  + f_1_30  + f_20_30  + f_93_30  + f_66_30  + f_8_30  + f_11_30 - f_30_73 + f_79_30  + f_28_30  + f_86_30  + f_25_30  + f_58_30 - f_30_76 = 0
c982: f_3_31  + f_49_31  + f_96_31  + f_58_31 - f_31_17 + f_17_31 - f_31_13 + f_44_31 - f_31_84- f_31_54- f_31_9 + f_89_31 - f_31_47 + f_7_31  + f_78_31  + f_61_31  + f_2_31  = 0
c983: - f_32_68- f_32_81 + f_99_32 - f_32_48 + f_56_32  + f_48_32  + f_73_32  + f_36_32  + f_9_32 - f_32_9 + f_29_32 - f_32_5- f_32_82- f_32_77 + f_34_32  = 0
c984: - f_33_12 + f_91_33  + f_3_33  + f_96_33 - f_33_97- f_33_4- f_33_77 + f_29_33  + f_44_33  + f_6_33  + f_86_33 - f_33_11 + f_2_33  + f_42_33  + f_71_33 - f_33_25- f_33_14- f_33_26 + f_25_33  + f_64_33  + f_22_33  + f_10_33 - f_33_21 + f_16_33 - f_33_36 = 0
c985: f_60_34  + f_63_34 - f_34_85 + f_61_34  + f_17_34 - f_34_47 + f_2_34 - f_34_35- f_34_54- f_34_24 + f_70_34 - f_34_26- f_34_59- f_34_91 + f_23_34 - f_34_98- f_34_5 + f_65_34  + f_11_34 - f_34_57- f_34_32 + f_98_34  = 0
c986: - f_35_41 + f_40_35  + f_64_35  + f_73_35  + f_97_35 - f_35_78 + f_67_35 - f_35_61- f_35_90 + f_5_35 - f_35_25- f_35_85 + f_2_35 - f_35_26 + f_34_35 - f_35_17 + f_38_35 - f_35_45- f_35_67 + f_87_35  + f_44_35  + f_95_35  + f_70_35  + f_43_35  = 0
c987: f_41_36 - f_36_15- f_36_43- f_36_64- f_36_84- f_36_91 + f_14_36  + f_19_36  + f_96_36  + f_48_36 - f_36_13- f_36_32 + f_9_36  + f_80_36 - f_36_40 + f_78_36  + f_33_36  = 0
c988: f_93_37  + f_4_37 - f_37_1 + f_43_37 - f_37_72 + f_8_37 - f_37_91 + f_63_37 - f_37_97- f_37_17 + f_13_37  + f_6_37 - f_37_11- f_37_47 + f_95_37 - f_37_77 + f_54_37 - f_37_95- f_37_58- f_37_96- f_37_44- f_37_43 = 0
c989: - f_38_43- f_38_4- f_38_66- f_38_95- f_38_44- f_38_42- f_38_6 + f_40_38 - f_38_12- f_38_84 + f_39_38 - f_38_35- f_38_78 + f_63_38 - f_38_15- f_38_76 = 0
c990: - f_39_23- f_39_16- f_39_10- f_39_11 + f_79_39  + f_88_39  + f_84_39 - f_39_38- f_39_26- f_39_68- f_39_22 + f_61_39 - f_39_86 + f_78_39  + f_10_39  + f_29_39 - f_39_24 + f_74_39 - f_39_78 = 0
c991: - f_40_0- f_40_87 + f_76_40 - f_40_35 + f_72_40 - f_40_52 + f_48_40 - f_40_22- f_40_38- f_40_1- f_40_28 + f_97_40 - f_40_61- f_40_4 + f_24_40 - f_40_81- f_40_46 + f_26_40  + f_93_40  + f_36_40 - f_40_93 + f_3_40  = 0
c992: - f_41_67- f_41_36 + f_35_41 - f_41_22- f_41_69 + f_92_41 - f_41_47 + f_49_41 - f_41_7- f_41_53 + f_18_41  + f_58_41  + f_0_41  + f_3_41 - f_41_18 + f_63_41  + f_97_41 - f_41_14 + f_51_41  + f_25_41  = 0
c993: f_98_42 - f_42_46- f_42_5- f_42_66 + f_38_42 - f_42_7- f_42_79- f_42_33 + f_83_42 - f_42_85- f_42_15 + f_51_42 - f_42_20 = 0
c994: - f_43_17 + f_38_43  + f_36_43 - f_43_37 + f_3_43  + f_75_43 - f_43_44 + f_57_43  + f_53_43  + f_22_43 - f_43_69- f_43_52- f_43_92 + f_16_43 - f_43_61- f_43_5- f_43_35- f_43_51 + f_37_43  = 0
c995: - f_44_85 + f_84_44  + f_38_44  + f_49_44  + f_43_44 - f_44_33 + f_22_44  + f_14_44 - f_44_31- f_44_48 + f_63_44  + f_18_44 - f_44_72- f_44_26- f_44_90- f_44_0 + f_79_44 - f_44_81 + f_80_44 - f_44_94- f_44_35 + f_7_44 - f_44_83 + f_37_44 - f_44_27 = 0
c996: f_2_45 - f_45_52- f_45_83 + f_24_45 - f_45_51 + f_18_45  + f_92_45  + f_57_45  + f_10_45 - f_45_89- f_45_20 + f_35_45  + f_53_45 - f_45_14- f_45_92 = 0
c997: - f_46_71 + f_42_46  + f_56_46 - f_46_51 + f_48_46 - f_46_75- f_46_56 + f_40_46  + f_85_46  + f_83_46 - f_46_62 + f_18_46 - f_46_4- f_46_92- f_46_53 + f_60_46 - f_46_20- f_46_85 = 0
c998: - f_47_84 + f_60_47 - f_47_12 + f_41_47  + f_55_47 - f_47_26 + f_34_47  + f_37_47 - f_47_95 + f_64_47 - f_47_50 + f_20_47  + f_63_47  + f_78_47  + f_31_47  = 0
c999: - f_48_56- f_48_90 + f_32_48 - f_48_46- f_48_32- f_48_65- f_48_40 + f_71_48 - f_48_20- f_48_24- f_48_54 + f_63_48  + f_44_48 - f_48_36- f_48_94 + f_27_48 - f_48_85 + f_90_48  + f_95_48 - f_48_14 + f_4_48 - f_48_16- f_48_8 + f_87_48 - f_48_10- f_48_92 = 0
c1000: f_20_49  + f_26_49  + f_99_49 - f_49_21 + f_62_49 - f_49_14 + f_57_49 - f_49_82- f_49_44- f_49_31- f_49_41- f_49_92- f_49_15- f_49_2 + f_90_49  + f_6_49 - f_49_66- f_49_78- f_49_29- f_49_72- f_49_19 + f_74_49 - f_49_60 + f_71_49  = 0
c1001: f_12_50 - f_50_1- f_50_92- f_50_77- f_50_80 + f_13_50  + f_15_50  + f_55_50  + f_51_50 - f_50_57 + f_73_50 - f_50_25- f_50_61 + f_14_50  + f_0_50  + f_53_50 - f_50_87 + f_20_50 - f_50_96 + f_47_50  + f_62_50 - f_50_28 + f_99_50  + f_66_50  + f_7_50 - f_50_90 + f_28_50  = 0
c1002: f_79_51 - f_51_25 + f_46_51  + f_45_51 - f_51_50 + f_2_51  + f_75_51 - f_51_1- f_51_53 + f_54_51 - f_51_42 + f_13_51 - f_51_52 + f_0_51 - f_51_29- f_51_92 + f_53_51  + f_94_51 - f_51_41 + f_43_51  = 0
c1003: - f_52_6- f_52_18 + f_45_52 - f_52_89 + f_40_52  + f_1_52  + f_20_52 - f_52_87 + f_77_52 - f_52_61 + f_43_52  + f_51_52 - f_52_23 = 0
c1004: - f_53_84- f_53_97 + f_93_53  + f_98_53  + f_96_53 - f_53_50- f_53_43 + f_54_53  + f_97_53  + f_41_53  + f_51_53 - f_53_45 + f_17_53  + f_46_53 - f_53_51- f_53_96 = 0
c1005: f_94_54  + f_13_54  + f_63_54 - f_54_53 + f_48_54  + f_31_54  + f_34_54 - f_54_85 + f_27_54 - f_54_51- f_54_57- f_54_37 + f_84_54 - f_54_78 + f_80_54  + f_99_54 - f_54_7- f_54_79- f_54_65 + f_91_54  + f_5_54  = 0
c1006: - f_55_79 + f_29_55 - f_55_71 + f_77_55  + f_1_55 - f_55_50 + f_90_55  + f_26_55 - f_55_47 + f_58_55 - f_55_66- f_55_64 + f_73_55 - f_55_73- f_55_94 + f_5_55  + f_17_55  = 0
c1007: - f_56_46 + f_48_56 - f_56_70- f_56_32- f_56_58 + f_58_56 - f_56_3- f_56_85 + f_46_56  + f_5_56  + f_81_56  + f_83_56 - f_56_19- f_56_73 + f_99_56  + f_8_56  + f_84_56  = 0
c1008: f_99_57  + f_81_57 - f_57_17- f_57_49- f_57_81 + f_50_57 - f_57_43- f_57_45 + f_0_57 - f_57_78- f_57_12 + f_54_57 - f_57_89 + f_18_57 - f_57_73- f_57_8 + f_28_57  + f_34_57  = 0
c1009: f_24_58 - f_58_8- f_58_26 + f_56_58 - f_58_56- f_58_31- f_58_28 + f_70_58 - f_58_12 + f_80_58 - f_58_55- f_58_89- f_58_41- f_58_30 + f_37_58 - f_58_17 + f_87_58 - f_58_74 + f_27_58  = 0
c1010: f_23_59 - f_59_76 + f_13_59  + f_82_59 - f_59_75- f_59_10- f_59_8 + f_34_59  + f_63_59 - f_59_25- f_59_80 = 0
c1011: - f_60_34 + f_19_60 - f_60_23- f_60_47 + f_62_60 - f_60_94 + f_67_60  + f_7_60 - f_60_13 + f_10_60  + f_65_60  + f_49_60 - f_60_19 + f_79_60 - f_60_46 + f_23_60 - f_60_61- f_60_25 + f_74_60  = 0
c1012: f_97_61  + f_16_61 - f_61_2 + f_26_61  + f_35_61  + f_4_61 - f_61_29- f_61_34 + f_89_61  + f_50_61 - f_61_76 + f_0_61  + f_11_61  + f_40_61 - f_61_78- f_61_39 + f_52_61 - f_61_93 + f_43_61 - f_61_31 + f_60_61  = 0
c1013: f_83_62 - f_62_49- f_62_0 + f_69_62 - f_62_27- f_62_60 + f_27_62 - f_62_50- f_62_77 + f_46_62 - f_62_16 + f_96_62 - f_62_74 = 0
c1014: - f_63_92- f_63_54 + f_15_63 - f_63_34- f_63_37- f_63_11 + f_93_63  + f_71_63 - f_63_48- f_63_44- f_63_59- f_63_91 + f_88_63 - f_63_80- f_63_38- f_63_47 + f_23_63 - f_63_41- f_63_70 = 0
c1015: - f_64_22- f_64_10 + f_82_64  + f_36_64 - f_64_35 + f_86_64 - f_64_12- f_64_23- f_64_20 + f_97_64  + f_24_64 - f_64_47 + f_55_64 - f_64_33- f_64_29- f_64_91 + f_80_64 - f_64_65- f_64_93 = 0
c1016: f_7_65 - f_65_77- f_65_93 + f_20_65  + f_48_65  + f_12_65  + f_9_65 - f_65_21 + f_76_65  + f_71_65 - f_65_11- f_65_34 + f_15_65  + f_84_65 - f_65_68- f_65_60- f_65_69 + f_54_65  + f_64_65  + f_27_65  = 0
c1017: f_22_66  + f_38_66  + f_83_66  + f_17_66  + f_7_66  + f_42_66 - f_66_30 + f_77_66  + f_94_66  + f_55_66 - f_66_99 + f_49_66 - f_66_12- f_66_25 + f_1_66  + f_98_66  + f_80_66 - f_66_50- f_66_67- f_66_13 = 0
c1018: f_41_67 - f_67_9- f_67_87- f_67_94- f_67_83 + f_98_67 - f_67_35- f_67_14- f_67_76 + f_75_67  + f_2_67 - f_67_60 + f_35_67  + f_92_67  + f_85_67  + f_7_67 - f_67_17 + f_0_67  + f_66_67 - f_67_81 + f_86_67  = 0
c1019: f_73_68  + f_32_68  + f_25_68 - f_68_24 + f_22_68  + f_39_68 - f_68_71 + f_78_68  + f_65_68 - f_68_80 = 0
c1020: - f_69_71 + f_82_69 - f_69_73- f_69_26- f_69_62 + f_41_69 - f_69_99- f_69_13 + f_29_69  + f_22_69  + f_43_69  + f_12_69  + f_24_69 - f_69_8 + f_87_69  + f_8_69 - f_69_12 + f_70_69  + f_65_69  = 0
c1021: f_88_70 - f_70_90- f_70_81 + f_56_70 - f_70_89 + f_90_70 - f_70_58- f_70_34- f_70_26- f_70_69- f_70_76- f_70_35- f_70_86 + f_96_70  + f_63_70  = 0
c1022: f_46_71  + f_69_71  + f_72_71  + f_9_71 - f_71_29 + f_79_71  + f_55_71  + f_2_71 - f_71_48 + f_98_71 - f_71_63- f_71_23- f_71_33 + f_22_71  + f_4_71  + f_85_71  + f_15_71 - f_71_65 + f_73_71  + f_68_71 - f_71_21 + f_16_71 - f_71_49 + f_8_71 - f_71_20 = 0
c1023: - f_72_29 + f_26_72 - f_72_71- f_72_6- f_72_14- f_72_40 + f_37_72 - f_72_98- f_72_11- f_72_8 + f_44_72  + f_21_72 - f_72_93- f_72_17 + f_16_72  + f_49_72  + f_86_72  = 0
c1024: - f_73_68 + f_69_73 - f_73_35- f_73_32- f_73_50 + f_25_73  + f_30_73  + f_2_73 - f_73_71 + f_75_73 - f_73_55- f_73_15 + f_55_73  + f_57_73  + f_74_73  + f_56_73  = 0
c1025: f_25_74 - f_74_3- f_74_77 + f_21_74  + f_77_74  + f_1_74  + f_4_74 - f_74_22- f_74_73- f_74_49- f_74_39 + f_95_74  + f_62_74 - f_74_86 + f_58_74  + f_92_74 - f_74_60 = 0
c1026: - f_75_16- f_75_99 + f_46_75 - f_75_43 + f_59_75  + f_93_75 - f_75_51- f_75_67- f_75_27 + f_78_75  + f_91_75 - f_75_73- f_75_21 + f_81_75 - f_75_97 = 0
c1027: - f_76_8 + f_25_76  + f_59_76 - f_76_40- f_76_16- f_76_86- f_76_90 + f_3_76 - f_76_95 + f_67_76  + f_24_76 - f_76_15 + f_21_76  + f_61_76 - f_76_65- f_76_92- f_76_7- f_76_13- f_76_0 + f_38_76  + f_30_76  + f_70_76  = 0
c1028: f_65_77 - f_77_19 + f_21_77  + f_50_77  + f_10_77 - f_77_55 + f_33_77  + f_74_77 - f_77_74- f_77_66 + f_37_77 - f_77_52- f_77_23 + f_62_77 - f_77_80- f_77_16 + f_96_77  + f_32_77  + f_94_77  = 0
c1029: f_8_78  + f_28_78 - f_78_80 + f_35_78  + f_9_78  + f_57_78 - f_78_14 + f_61_78  + f_38_78  + f_49_78 - f_78_75 + f_24_78  + f_54_78 - f_78_2- f_78_47- f_78_1- f_78_39- f_78_68 + f_94_78 - f_78_31 + f_98_78  + f_39_78 - f_78_81- f_78_36 = 0
c1030: - f_79_51 + f_55_79 - f_79_20 + f_81_79 - f_79_80- f_79_6- f_79_71 + f_0_79 - f_79_39 + f_42_79  + f_16_79 - f_79_30- f_79_14- f_79_44- f_79_92 + f_54_79 - f_79_60 = 0
c1031: f_91_80 - f_80_11- f_80_25 + f_79_80  + f_50_80  + f_78_80 - f_80_14- f_80_83- f_80_24- f_80_89- f_80_58- f_80_90 + f_63_80  + f_77_80  + f_2_80 - f_80_36- f_80_44- f_80_54 + f_85_80 - f_80_5- f_80_66- f_80_17 + f_12_80  + f_10_80 - f_80_64 + f_59_80 - f_80_87 + f_68_80  = 0
c1032: - f_81_57- f_81_79- f_81_11 + f_70_81 - f_81_91 + f_17_81  + f_32_81 - f_81_94 + f_57_81  + f_97_81  + f_20_81  + f_94_81 - f_81_23- f_81_56 + f_40_81  + f_44_81 - f_81_75 + f_0_81  + f_96_81 - f_81_92 + f_67_81  + f_78_81  = 0
c1033: - f_82_69- f_82_64 + f_49_82  + f_10_82 - f_82_59- f_82_94- f_82_3- f_82_92- f_82_10- f_82_86 + f_5_82 - f_82_4- f_82_99 + f_32_82  + f_9_82  + f_4_82 - f_82_7 + f_96_82 - f_82_23 = 0
c1034: - f_83_62- f_83_23 + f_67_83 - f_83_66 + f_45_83  + f_4_83 - f_83_15- f_83_20 + f_80_83 - f_83_42- f_83_86- f_83_2 + f_22_83 - f_83_25 + f_28_83 - f_83_46 + f_21_83 - f_83_56 + f_44_83  = 0
c1035: f_47_84  + f_53_84 - f_84_44 + f_36_84 - f_84_93- f_84_39 + f_24_84  + f_31_84  + f_11_84  + f_38_84 - f_84_25- f_84_54- f_84_89 + f_7_84  + f_22_84 - f_84_65- f_84_56 + f_86_84 - f_84_28 = 0
c1036: f_2_85  + f_97_85  + f_44_85 - f_85_8 + f_34_85  + f_56_85  + f_23_85  + f_35_85  + f_91_85 - f_85_71 + f_42_85 - f_85_15 + f_48_85  + f_54_85 - f_85_46 + f_21_85 - f_85_80- f_85_67 + f_46_85  + f_29_85  = 0
c1037: f_16_86  + f_15_86  + f_76_86  + f_28_86 - f_86_64- f_86_33- f_86_22 + f_83_86  + f_82_86 - f_86_30 + f_39_86 - f_86_88 + f_70_86 - f_86_72- f_86_93 + f_74_86 - f_86_84- f_86_67 = 0
c1038: f_67_87  + f_26_87 - f_87_20 + f_40_87  + f_28_87 - f_87_17 + f_50_87 - f_87_14- f_87_97 + f_88_87 - f_87_96 + f_52_87  + f_7_87 - f_87_35- f_87_69- f_87_48- f_87_25 + f_93_87 - f_87_58 + f_80_87  + f_19_87  = 0
c1039: - f_88_70- f_88_91- f_88_39- f_88_87 + f_96_88 - f_88_63- f_88_13 + f_86_88  + f_24_88  + f_94_88  + f_6_88 - f_88_21 = 0
c1040: f_70_89  + f_52_89  + f_7_89 - f_89_61 + f_28_89  + f_80_89  + f_14_89  + f_45_89  + f_17_89  + f_84_89  + f_57_89  + f_58_89 - f_89_31 + f_4_89  + f_12_89  = 0
c1041: f_22_90  + f_15_90 - f_90_15 + f_70_90  + f_97_90  + f_48_90  + f_35_90 - f_90_70- f_90_55 + f_76_90 - f_90_23- f_90_49 + f_80_90  + f_44_90 - f_90_48 + f_5_90 - f_90_13- f_90_10 + f_50_90 - f_90_96 = 0
c1042: - f_91_80- f_91_33 + f_81_91  + f_88_91  + f_36_91  + f_37_91 - f_91_85- f_91_25 + f_34_91  + f_63_91  + f_14_91 - f_91_18- f_91_75- f_91_15- f_91_10 + f_64_91 - f_91_54 = 0
c1043: f_63_92  + f_50_92  + f_93_92 - f_92_41- f_92_45 + f_49_92 - f_92_18- f_92_28 + f_12_92 - f_92_67 + f_82_92 - f_92_93 + f_76_92  + f_45_92  + f_48_92  + f_46_92  + f_43_92  + f_27_92  + f_79_92  + f_81_92  + f_51_92 - f_92_74 = 0
c1044: - f_93_37 + f_65_93 - f_93_28 + f_95_93 - f_93_92- f_93_30- f_93_0- f_93_63- f_93_53 + f_1_93  + f_84_93 - f_93_75 + f_27_93  + f_72_93  + f_92_93 - f_93_40 + f_61_93 - f_93_87 + f_40_93  + f_99_93  + f_86_93  + f_64_93  = 0
c1045: - f_94_54 + f_67_94 - f_94_4- f_94_2 + f_81_94  + f_17_94  + f_82_94 - f_94_81 + f_48_94  + f_26_94  + f_60_94 - f_94_66 + f_44_94  + f_55_94 - f_94_78- f_94_88 + f_1_94 - f_94_51- f_94_77 = 0
c1046: f_38_95 - f_95_93- f_95_3 + f_76_95 - f_95_24 + f_47_95 - f_95_37- f_95_48 + f_37_95 - f_95_22- f_95_35- f_95_13- f_95_74 + f_0_95  = 0
c1047: - f_96_23- f_96_33 + f_25_96 - f_96_31- f_96_53 + f_13_96 - f_96_36 + f_87_96 - f_96_15- f_96_88 + f_50_96 - f_96_62- f_96_12- f_96_81 + f_37_96 - f_96_77 + f_90_96  + f_10_96 - f_96_70- f_96_82 + f_53_96  = 0
c1048: - f_97_22- f_97_85- f_97_61 + f_33_97 - f_97_90- f_97_35 + f_53_97  + f_37_97 - f_97_4- f_97_81- f_97_53- f_97_64 + f_87_97  + f_6_97  + f_0_97 - f_97_40- f_97_98 + f_28_97  + f_75_97 - f_97_41 = 0
c1049: - f_98_42- f_98_67- f_98_71 + f_72_98 - f_98_53 + f_1_98  + f_34_98  + f_97_98 - f_98_7- f_98_66- f_98_18 + f_0_98 - f_98_78- f_98_34 = 0

integer 
f_0_12 
f_0_79 
f_0_50 
f_0_7 
f_0_57 
f_0_97 
f_0_61 
f_0_81 
f_0_41 
f_0_99 
f_0_51 
f_0_67 
f_0_98 
f_0_95 

 end